p cnf 14 23
-14 13 10 0
14 -12 1 0
-14 -11 8 0
-14 10 -2 0
-14 9 4 0
14 -6 5 0
14 3 -1 0
-13 11 -7 0
13 10 -1 0
-13 8 5 0
13 -8 -4 0
-13 -8 4 0
13 2 1 0
12 10 8 0
-11 9 -2 0
-11 9 -1 0
-11 5 -2 0
-10 9 -8 0
-10 -8 -5 0
-9 7 2 0
8 7 -4 0
-8 -7 1 0
8 4 -3 0
